DIMENSION: 6
EDGE_WEIGHT_TYPE: EXPLICIT
EDGE_WEIGHT_FORMAT: FULL_MATRIX
EDGE_WEIGHT_SECTION:
32767 32767 32767 43 16 32767 
32767 32767 32767 32767 32767 53 
32767 32767 32767 31 81 32767 
43 32767 31 32767 55 32767 
16 32767 81 55 32767 32767 
32767 53 32767 32767 32767 32767 
EOF